c WARNING: for repeatability, setting FPU to use double precision
d VARIABLES            21117        
d CONSTRAINTS          79909        
c ============================[ Problem Statistics ]=============================
c |                                                                             |
c |  Number of variables:         21117                                         |
c |  Number of clauses:           79909                                         |
c |  Parse time:                   0.01 s                                       |
c |                                                                             |
c ============================[ Search Statistics ]==============================
c | Conflicts |          ORIGINAL         |          LEARNT          | Progress |
c |           |    Vars  Clauses Literals |    Limit  Clauses Lit/Cl |          |
c ===============================================================================
c |       100 |   14322    59865   146876 |    21950      100    119 | 32.178 % |
c |       250 |   14322    59865   146876 |    24145      250    143 | 32.178 % |
c |       475 |   14322    59865   146876 |    26560      475    126 | 32.178 % |
c |       812 |   14322    59865   146876 |    29216      812    117 | 32.178 % |
c |      1318 |   14322    59865   146876 |    32137     1318    114 | 32.178 % |
c |      2077 |   14322    59865   146876 |    35351     2077    108 | 32.178 % |
c |      3216 |   14322    59865   146876 |    38886     3216    109 | 32.178 % |
c |      4924 |   14322    59865   146876 |    42775     4924    111 | 32.178 % |
c |      7486 |   14322    59865   146876 |    47052     7486    115 | 32.178 % |
c |     11330 |   14322    59865   146876 |    51758    11330    113 | 32.178 % |
c |     17096 |   14322    59865   146876 |    56933    17096    107 | 32.178 % |
c |     25745 |   14322    59865   146876 |    62627    25745     99 | 32.178 % |
c ===============================================================================
c restarts              : 103
c conflicts             : 28656          (4352 /sec)
c decisions             : 59835          (0.00 % random) (9087 /sec)
c propagations          : 28794552       (4373140 /sec)
c conflict literals     : 2739486        (49.69 % deleted)
d RESTARTS             103
d FAILURES             28656        
d NODES                59835        
d BACKTRACKS           59835        
d PROPAGATIONS         28794552     
d NOGOODSIZE           95.60 
d MEMORY               40.00 
d TIME                 6.58441 

s UNSATISFIABLE
